500
750 750
1 600 992
2 597 887
3 593 856
4 592 443
5 592 749
6 590 99
7 590 61
8 590 676
9 588 330
10 587 136
11 587 418
12 587 187
13 586 397
14 586 865
15 585 313
16 584 821
17 583 419
18 583 139
19 583 372
20 583 392
21 582 244
22 582 802
23 582 619
24 582 80
25 580 453
26 579 771
27 579 130
28 578 360
29 577 813
30 577 944
31 575 826
32 574 793
33 574 276
34 574 208
35 574 833
36 573 55
37 572 886
38 570 999
39 569 987
40 569 478
41 568 209
42 568 19
43 567 518
44 567 907
45 567 771
46 566 468
47 566 410
48 565 373
49 564 522
50 562 763
51 562 61
52 560 706
53 560 116
54 558 945
55 558 831
56 556 585
57 555 177
58 554 246
59 553 930
60 552 951
61 552 370
62 552 895
63 551 697
64 551 529
65 550 553
66 550 602
67 549 419
68 549 782
69 549 104
70 546 768
71 546 658
72 546 931
73 543 923
74 542 694
75 541 849
76 541 786
77 538 488
78 537 869
79 536 363
80 536 246
81 535 510
82 534 313
83 531 407
84 531 292
85 530 684
86 530 52
87 528 784
88 528 559
89 524 25
90 522 364
91 522 714
92 521 603
93 520 164
94 519 964
95 519 807
96 519 816
97 518 458
98 517 348
99 517 966
100 517 503
101 516 348
102 514 487
103 513 929
104 513 574
105 512 285
106 511 929
107 511 881
108 511 828
109 510 307
110 509 884
111 508 670
112 506 869
113 506 678
114 505 172
115 505 792
116 503 626
117 501 186
118 500 973
119 500 180
120 500 984
121 497 489
122 497 170
123 497 983
124 496 101
125 496 316
126 496 316
127 496 714
128 494 153
129 494 77
130 494 959
131 494 85
132 492 201
133 492 791
134 490 696
135 490 511
136 489 688
137 489 213
138 487 159
139 487 991
140 487 744
141 486 7
142 486 216
143 483 32
144 481 823
145 480 743
146 479 624
147 477 306
148 477 631
149 476 818
150 475 922
151 474 170
152 474 153
153 473 241
154 473 53
155 472 420
156 472 864
157 470 68
158 469 633
159 468 793
160 468 55
161 468 620
162 467 828
163 467 31
164 466 974
165 465 420
166 465 876
167 465 354
168 465 649
169 465 442
170 462 27
171 462 326
172 461 811
173 460 457
174 458 585
175 457 595
176 457 447
177 457 530
178 457 659
179 457 927
180 456 220
181 455 739
182 453 609
183 453 523
184 452 253
185 452 175
186 450 624
187 449 671
188 448 785
189 447 321
190 445 186
191 445 944
192 445 61
193 445 418
194 444 462
195 444 462
196 444 758
197 444 407
198 443 453
199 442 360
200 437 647
201 435 647
202 435 272
203 432 746
204 432 508
205 431 833
206 429 448
207 429 979
208 429 275
209 429 533
210 428 943
211 427 989
212 427 807
213 426 85
214 426 237
215 424 948
216 424 345
217 423 740
218 422 16
219 421 806
220 420 509
221 420 875
222 417 227
223 416 676
224 415 296
225 414 171
226 411 370
227 410 741
228 410 88
229 409 573
230 409 9
231 409 854
232 409 517
233 404 95
234 404 305
235 404 704
236 403 117
237 403 364
238 403 540
239 401 223
240 401 234
241 400 807
242 399 853
243 398 420
244 398 282
245 396 736
246 395 404
247 394 504
248 393 455
249 390 620
250 390 295
251 383 364
252 383 174
253 382 155
254 381 794
255 380 777
256 380 972
257 380 665
258 376 179
259 375 739
260 375 436
261 374 814
262 373 736
263 373 435
264 371 745
265 370 250
266 368 940
267 367 372
268 364 331
269 363 849
270 363 424
271 362 304
272 361 193
273 360 539
274 360 25
275 359 222
276 358 124
277 357 951
278 357 91
279 356 430
280 355 887
281 354 741
282 354 589
283 354 684
284 354 407
285 354 705
286 352 916
287 352 353
288 351 224
289 351 69
290 350 779
291 350 359
292 350 385
293 349 263
294 348 263
295 348 727
296 346 709
297 346 25
298 345 157
299 344 98
300 342 908
301 341 835
302 340 275
303 338 12
304 337 899
305 337 218
306 337 462
307 337 391
308 333 578
309 333 284
310 333 948
311 332 418
312 330 978
313 330 885
314 330 741
315 329 489
316 329 207
317 325 308
318 325 539
319 325 871
320 323 727
321 322 797
322 321 74
323 321 704
324 320 513
325 320 781
326 320 147
327 318 6
328 318 839
329 316 879
330 314 869
331 313 649
332 311 205
333 311 653
334 308 686
335 308 104
336 307 424
337 307 164
338 303 595
339 300 243
340 300 720
341 297 196
342 296 118
343 296 163
344 296 902
345 293 618
346 293 69
347 293 178
348 291 93
349 291 788
350 290 675
351 287 978
352 287 965
353 287 944
354 285 969
355 285 253
356 284 11
357 284 53
358 283 31
359 282 406
360 282 895
361 281 702
362 280 337
363 279 922
364 278 479
365 278 194
366 278 762
367 277 139
368 277 656
369 277 904
370 277 869
371 276 69
372 276 82
373 274 807
374 273 225
375 273 496
376 273 813
377 271 382
378 268 315
379 267 876
380 267 979
381 265 710
382 265 226
383 265 348
384 262 947
385 260 677
386 259 896
387 259 616
388 258 553
389 258 881
390 258 665
391 257 257
392 255 573
393 254 395
394 251 995
395 250 464
396 248 280
397 248 186
398 248 687
399 245 627
400 244 452
401 243 282
402 243 126
403 242 625
404 241 17
405 241 11
406 240 251
407 240 71
408 239 475
409 239 64
410 236 804
411 235 862
412 235 520
413 234 614
414 233 514
415 232 224
416 230 323
417 229 974
418 229 312
419 228 477
420 228 276
421 226 632
422 226 92
423 225 484
424 225 175
425 224 327
426 224 364
427 223 684
428 222 960
429 219 723
430 218 865
431 217 994
432 217 962
433 216 312
434 216 151
435 212 808
436 211 949
437 210 30
438 209 305
439 209 893
440 208 266
441 208 201
442 208 94
443 208 178
444 206 800
445 206 425
446 206 605
447 206 511
448 203 632
449 203 813
450 202 754
451 202 235
452 201 971
453 201 550
454 199 363
455 197 568
456 196 945
457 194 987
458 194 567
459 194 744
460 191 672
461 191 290
462 186 6
463 183 715
464 182 400
465 181 488
466 180 634
467 178 816
468 177 925
469 175 431
470 174 326
471 171 65
472 170 232
473 169 153
474 169 777
475 169 515
476 167 743
477 167 854
478 167 824
479 167 876
480 167 628
481 166 301
482 166 378
483 165 665
484 165 775
485 163 370
486 162 684
487 161 116
488 161 55
489 160 41
490 159 761
491 158 342
492 155 600
493 155 422
494 154 176
495 153 186
496 152 990
497 152 143
498 152 262
499 151 964
500 151 610
